54
120
83	2
82	2
81	3
79	1
78	2
77	2
76	2
74	1
73	1
72	2
71	2
67	2
65	2
64	1
63	1
62	1
61	1
57	1
56	1
55	1
53	2
52	1
51	2
50	1
49	1
48	2
46	3
45	1
44	3
43	1
42	5
41	4
40	2
39	2
38	2
37	2
33	1
32	2
31	2
30	3
29	2
27	2
26	1
25	3
24	3
23	1
22	4
21	1
20	1
17	1
16	1
15	1
14	5
12	1
